p cnf 34 89
a 21 23 0
e 1 2 3 4 5 6 7 8 9 10 11 12 13 14 15 16 17 18 19 20 22 24 25 26 27 28 29 30 31 32 33 34 0
-1 -2 -3 0
1 2 -3 0
-1 2 3 0
1 -2 3 0
4 -3 0
4 3 0
6 -7 -8 0
-6 7 -8 0
6 7 8 0
-6 -7 8 0
10 -8 0
10 -9 0
8 9 -10 0
-11 5 0
-11 10 0
-5 -10 11 0
-14 -12 0
-14 13 0
12 -13 14 0
-15 8 0
-15 14 0
-8 -14 15 0
11 15 -16 0
-11 -15 -16 0
11 -15 16 0
-11 15 16 0
-17 -4 0
-17 -16 0
4 16 17 0
20 18 0
20 19 0
-18 -19 -20 0
-17 20 -21 0
17 -20 -21 0
-17 -20 21 0
17 20 21 0
22 8 0
22 5 0
-8 -5 -22 0
22 10 -23 0
-22 -10 -23 0
22 -10 23 0
-22 10 23 0
13 18 -24 0
-13 -18 -24 0
13 -18 24 0
-13 18 24 0
25 -23 0
25 24 0
23 -24 -25 0
-26 -6 0
-26 2 0
6 -2 26 0
-27 -5 0
-27 3 0
5 -3 27 0
28 -26 0
28 27 0
26 -27 -28 0
25 -28 -29 0
-25 28 -29 0
25 28 29 0
-25 -28 29 0
3 12 -30 0
-3 -12 -30 0
3 -12 30 0
-3 12 30 0
31 -18 0
31 -8 0
18 8 -31 0
32 -30 0
32 31 0
30 -31 -32 0
33 29 0
33 32 0
-29 -32 -33 0
-21 -33 -34 0
21 33 -34 0
-21 33 34 0
21 -33 34 0
-21 -10 17 -27 5 -30 15 0
-22 -15 -5 0
16 14 25 9 5 22 27 0
-17 24 -26 0
-33 32 12 0
-25 9 15 -14 28 0
12 -27 6 2 -4 -31 -15 0
-17 -12 28 -22 20 24 -18 0
34 0
